n_res = 5;
n_events = 22;
n_prec = 46;
source = 1;
sink = 22;
min_lvl = [-2, 1, -6, -3, -5];
max_lvl = [2, 6, 0, 2, 0];
rr = [| 0, -1, 0, 0, 0, 0, 0, 1, 0, 2, 0, -2, 0, 0, 0, -1, -1, 0, 1, 0, 1, 0
      | 0, 0, 0, 2, 2, 0, 2, -2, 0, -2, 0, -2, 2, 1, -2, 1, 2, -2, 0, 0, 0, 0
      | 0, -1, 0, 1, -1, -2, -1, -2, 0, 0, -2, 0, -1, 0, 0, 2, 2, 1, 0, 1, -2, 0
      | 0, 0, -1, 2, -1, 0, -1, 1, 2, 1, 0, 1, -1, 0, 0, -1, -1, 2, 0, -2, 0, 0
      | 0, -1, 1, 0, -1, -2, -1, 1, -1, 2, 1, -2, 0, 0, -1, -1, 0, 0, 0, 0, 0, 0 |];
prec = [| 1, 0, 2
        | 1, 0, 3
        | 1, 0, 4
        | 1, 0, 5
        | 2, 20, 8
        | 2, -2, 21
        | 3, 17, 20
        | 3, 20, 7
        | 4, 13, 11
        | 4, 20, 19
        | 4, 18, 17
        | 5, -7, 15
        | 6, -121, 13
        | 6, 7, 22
        | 6, 2, 16
        | 6, -111, 2
        | 7, 3, 20
        | 8, 1, 18
        | 9, 6, 21
        | 9, 0, 16
        | 9, -1, 6
        | 9, -63, 8
        | 10, 15, 19
        | 11, 9, 12
        | 11, -53, 15
        | 12, 5, 13
        | 13, 14, 18
        | 14, -120, 10
        | 14, 4, 11
        | 14, 1, 13
        | 15, -62, 19
        | 15, 10, 14
        | 15, 12, 18
        | 16, -75, 15
        | 16, -123, 2
        | 16, 5, 22
        | 16, 0, 21
        | 17, 7, 10
        | 18, -117, 2
        | 18, 0, 9
        | 19, 1, 11
        | 19, 0, 15
        | 20, 9, 22
        | 21, -127, 11
        | 21, 2, 22
        | 21, -125, 5 |];
